45
120
84	1
77	1
76	1
75	2
74	1
71	1
70	7
68	2
67	4
66	2
65	1
64	1
63	1
61	1
60	4
59	1
58	1
57	1
55	1
54	1
53	3
52	1
51	4
50	5
49	2
48	3
47	1
45	1
43	2
42	1
41	3
40	6
38	2
36	4
35	1
34	2
33	2
32	5
31	1
30	1
29	4
28	4
27	3
26	2
25	2
